105054.39
77 92 88 81 70 78 79 71 80 89 101 90 91 100 103 115 111 127 126 122 112 113 102 114 123 135 124 125 134 1 10 11 0 12 21 33 22 23 32 35 44 45 34 46 55 64 56 57 47 54 65 58 59 53 48 52 66 60 61 40 49 51 67 62 63 50 38 39 37 30 28 29 16 4 5 3 132 120 130 131 119 106 107 105 98 96 97 85 72 73 86 84 68 74 95 94 75 69 83 87 99 104 109 108 118 129 128 117 121 133 2 7 6 15 17 27 26 14 18 31 41 36 42 43 25 24 20 13 9 8 19 116 110 93 82 76